============================[ Problem Statistics ]=============================|                                                                             ||  Number of variables:          4242                                         ||  Number of clauses:           10337                                         ||  Parse time:                   0.72 s                                       ||                                                                             |============================[ Search Statistics ]==============================| Conflicts |          ORIGINAL         |          LEARNT          | Progress ||           |    Vars  Clauses Literals |    Limit  Clauses Lit/Cl |          |===============================================================================|       100 |    1591     6542  1155723 |     2398      100     53 | 62.501 % ||       250 |    1591     6542  1155723 |     2638      250     75 | 62.495 % |===============================================================================restarts              : 3conflicts             : 393            (361 /sec)decisions             : 656            (0.00 % random) (602 /sec)propagations          : 12039          (11045 /sec)conflict literals     : 32521          (94.56 % deleted)CPU time              : 1.09 sSATISFIABLE